
n_res = 4;
rcap = [36, 40, 628, 581];
rtype = [1, 1, 2, 2];
n_tasks = 100;
modes =  [{1, 2, 3}, {4, 5, 6}, {7, 8, 9}, {10, 11, 12}, {13, 14, 15}, {16, 17, 18}, {19, 20, 21}, {22, 23, 24}, {25, 26, 27}, {28, 29, 30}, {31, 32, 33}, {34, 35, 36}, {37, 38, 39}, {40, 41, 42}, {43, 44, 45}, {46, 47, 48}, {49, 50, 51}, {52, 53, 54}, {55, 56, 57}, {58, 59, 60}, {61, 62, 63}, {64, 65, 66}, {67, 68, 69}, {70, 71, 72}, {73, 74, 75}, {76, 77, 78}, {79, 80, 81}, {82, 83, 84}, {85, 86, 87}, {88, 89, 90}, {91, 92, 93}, {94, 95, 96}, {97, 98, 99}, {100, 101, 102}, {103, 104, 105}, {106, 107, 108}, {109, 110, 111}, {112, 113, 114}, {115, 116, 117}, {118, 119, 120}, {121, 122, 123}, {124, 125, 126}, {127, 128, 129}, {130, 131, 132}, {133, 134, 135}, {136, 137, 138}, {139, 140, 141}, {142, 143, 144}, {145, 146, 147}, {148, 149, 150}, {151, 152, 153}, {154, 155, 156}, {157, 158, 159}, {160, 161, 162}, {163, 164, 165}, {166, 167, 168}, {169, 170, 171}, {172, 173, 174}, {175, 176, 177}, {178, 179, 180}, {181, 182, 183}, {184, 185, 186}, {187, 188, 189}, {190, 191, 192}, {193, 194, 195}, {196, 197, 198}, {199, 200, 201}, {202, 203, 204}, {205, 206, 207}, {208, 209, 210}, {211, 212, 213}, {214, 215, 216}, {217, 218, 219}, {220, 221, 222}, {223, 224, 225}, {226, 227, 228}, {229, 230, 231}, {232, 233, 234}, {235, 236, 237}, {238, 239, 240}, {241, 242, 243}, {244, 245, 246}, {247, 248, 249}, {250, 251, 252}, {253, 254, 255}, {256, 257, 258}, {259, 260, 261}, {262, 263, 264}, {265, 266, 267}, {268, 269, 270}, {271, 272, 273}, {274, 275, 276}, {277, 278, 279}, {280, 281, 282}, {283, 284, 285}, {286, 287, 288}, {289, 290, 291}, {292, 293, 294}, {295, 296, 297}, {298, 299, 300}];
succ =  [{21, 19, 16, 15, 13, 12, 11, 8}, {24, 21, 19, 11, 7}, {24, 16, 12, 9}, {36, 34, 31, 24, 23, 22, 21, 19, 18}, {36, 32, 25, 24, 19, 18, 15}, {21, 19, 13}, {37, 32, 25, 23, 18, 17}, {37, 31, 28, 25, 24, 23, 17}, {19, 11}, {37, 36, 34, 31, 30, 28, 26, 24, 22}, {37, 36, 34, 31, 30, 29, 25, 18}, {37, 32, 26, 17}, {31, 25, 23, 17}, {41, 37, 36, 34, 32, 31, 30, 29, 22}, {47, 43, 41, 37, 34, 31, 29, 22}, {47, 39, 36, 34, 32, 29, 27, 26}, {43, 41, 36, 34, 30, 29, 22}, {47, 35, 33, 28, 26}, {52, 43, 40, 39, 38, 35, 33, 30}, {41, 39, 38, 37, 36, 34, 33}, {47, 39, 37, 32, 27}, {52, 44, 40, 39, 38, 27}, {44, 43, 40, 39, 27}, {52, 49, 41, 39, 29}, {47, 44, 39, 27}, {52, 50, 48, 43, 42, 41, 40, 38}, {59, 50, 45, 35, 33}, {55, 45, 43, 42, 39}, {59, 50, 45, 35}, {58, 50, 47, 46, 45, 44}, {55, 48, 46, 45, 39}, {54, 52, 49, 43, 42}, {55, 54, 49, 48, 46, 42}, {62, 49, 45, 40}, {55, 54, 48, 46, 42}, {63, 62, 55, 53, 52, 46}, {54, 51, 49, 48, 46}, {61, 59, 56, 54, 51, 49}, {71, 59, 58, 54, 53, 50}, {71, 65, 61, 60, 59, 58, 57, 55, 54}, {58, 44}, {71, 66, 63, 62, 60, 58, 56, 53}, {63, 62, 46}, {71, 70, 62, 60, 59, 55, 53}, {61, 60, 56, 54, 51}, {71, 68, 66, 65, 61, 57, 56}, {73, 71, 70, 66, 65, 63, 61, 59}, {70, 65, 63, 62, 61, 60}, {79, 71, 68, 65, 60, 58}, {66, 65, 60, 57}, {79, 73, 72, 70, 69, 66, 65, 64, 63}, {68, 60, 59, 58}, {79, 73, 68, 65, 61}, {79, 76, 70, 69, 66, 64}, {76, 74, 73, 68, 64}, {74, 73, 72, 64}, {79, 70, 69, 64}, {76, 69, 64}, {89, 88, 83, 82, 79, 78, 74, 69}, {89, 78, 77, 74, 73, 72}, {64}, {88, 83, 82, 79, 77, 76, 75, 74}, {83, 82, 81, 78, 77, 75, 68}, {89, 83, 82, 78, 67}, {89, 83, 82, 81, 77, 76, 75}, {89, 85, 83, 81, 77, 75}, {88, 85, 81, 77, 75}, {100, 89, 88, 86, 85, 80}, {100, 77, 75}, {89, 88, 75}, {100, 85, 75}, {83, 75}, {100, 88, 82, 80}, {95, 87, 84, 81}, {86, 84, 80}, {100, 96, 90, 80}, {99, 90, 80}, {95, 86, 84}, {95, 87, 85}, {98, 95, 94, 91, 87}, {100, 98, 97, 96, 90}, {98, 85}, {100, 95, 94, 90}, {99, 94, 90}, {96, 94, 90}, {96, 94, 93, 92}, {97, 93, 92}, {99, 94, 92}, {95, 94, 92}, {92, 91}, {93}, {}, {}, {}, {}, {}, {}, {}, {}, {}];
n_opt = 300;
dur = [1, 4, 9, 5, 7, 8, 1, 5, 8, 2, 4, 8, 6, 7, 8, 4, 8, 9, 2, 7, 9, 1, 9, 10, 1, 2, 5, 1, 2, 8, 3, 8, 10, 4, 7, 8, 4, 5, 8, 1, 5, 10, 6, 9, 10, 6, 7, 8, 5, 9, 10, 6, 7, 8, 1, 5, 7, 3, 8, 10, 4, 7, 9, 5, 6, 8, 3, 8, 9, 3, 7, 9, 3, 4, 7, 2, 5, 10, 1, 2, 6, 3, 5, 7, 1, 4, 9, 7, 8, 10, 4, 5, 6, 6, 8, 9, 2, 3, 7, 5, 6, 8, 4, 5, 8, 2, 3, 10, 5, 6, 7, 5, 6, 10, 1, 5, 9, 5, 6, 9, 1, 6, 8, 2, 4, 5, 2, 5, 7, 1, 3, 5, 3, 4, 5, 2, 7, 8, 5, 6, 8, 3, 5, 7, 7, 9, 10, 2, 3, 4, 1, 2, 6, 2, 7, 10, 6, 7, 10, 3, 5, 9, 2, 4, 9, 1, 6, 7, 2, 9, 10, 2, 5, 8, 2, 3, 10, 6, 7, 9, 7, 8, 9, 1, 2, 10, 1, 2, 6, 2, 5, 6, 2, 5, 8, 4, 5, 8, 1, 6, 9, 1, 7, 9, 2, 3, 4, 5, 6, 8, 4, 5, 6, 2, 3, 10, 2, 4, 8, 6, 8, 10, 1, 2, 9, 2, 3, 9, 1, 3, 8, 3, 5, 9, 3, 6, 7, 5, 7, 10, 3, 4, 7, 4, 5, 7, 1, 2, 8, 6, 7, 9, 3, 6, 9, 4, 8, 10, 4, 5, 8, 1, 2, 3, 3, 5, 6, 2, 6, 10, 1, 2, 6, 1, 4, 10, 4, 7, 9, 3, 7, 10, 1, 6, 10, 1, 3, 8, 5, 8, 10, 4, 6, 7, 3, 6, 10, 5, 6, 10];
rreq = [|5, 4, 4, 7, 3, 3, 7, 5, 4, 7, 6, 6, 1, 1, 1, 4, 2, 2, 1, 1, 1, 8, 6, 6, 8, 7, 7, 8, 7, 7, 6, 4, 3, 5, 3, 2, 8, 5, 4, 8, 8, 8, 8, 6, 5, 9, 8, 7, 8, 7, 7, 7, 6, 6, 8, 6, 5, 9, 8, 4, 8, 5, 3, 8, 7, 7, 4, 3, 1, 8, 6, 6, 7, 7, 6, 10, 8, 8, 5, 5, 3, 8, 6, 2, 9, 6, 6, 7, 6, 5, 7, 5, 5, 3, 2, 1, 8, 6, 6, 10, 5, 2, 6, 5, 3, 7, 7, 7, 3, 2, 2, 7, 5, 5, 6, 6, 4, 6, 6, 4, 6, 5, 4, 6, 3, 2, 8, 5, 4, 3, 2, 1, 8, 4, 3, 6, 4, 4, 8, 8, 4, 8, 7, 5, 6, 6, 6, 8, 4, 2, 7, 4, 3, 1, 1, 1, 7, 6, 5, 9, 7, 6, 6, 6, 4, 4, 3, 2, 4, 2, 1, 7, 5, 3, 7, 6, 6, 9, 6, 5, 4, 2, 2, 3, 2, 2, 5, 3, 2, 6, 6, 5, 4, 4, 4, 9, 7, 7, 9, 8, 8, 9, 7, 3, 6, 5, 2, 6, 6, 6, 7, 7, 4, 7, 5, 3, 9, 8, 8, 2, 1, 1, 7, 7, 7, 7, 4, 3, 9, 9, 9, 7, 7, 5, 7, 6, 4, 10, 10, 10, 4, 2, 2, 8, 7, 4, 4, 4, 1, 5, 5, 5, 3, 3, 2, 4, 3, 2, 8, 7, 6, 5, 4, 4, 9, 8, 8, 5, 4, 4, 9, 8, 7, 8, 7, 6, 7, 3, 2, 4, 3, 3, 9, 8, 8, 5, 4, 4, 8, 6, 4, 9, 9, 8, 8, 6, 3, 5, 4, 4
 |3, 3, 3, 9, 9, 8, 9, 4, 3, 7, 7, 6, 1, 1, 1, 2, 1, 1, 5, 5, 5, 3, 2, 2, 9, 7, 5, 8, 5, 3, 9, 6, 3, 1, 1, 1, 7, 6, 6, 4, 4, 3, 7, 6, 4, 5, 5, 3, 3, 3, 2, 6, 4, 3, 8, 5, 4, 6, 5, 3, 5, 4, 3, 7, 6, 5, 4, 3, 3, 8, 7, 7, 7, 6, 5, 9, 6, 4, 4, 3, 3, 2, 1, 1, 6, 5, 4, 8, 7, 3, 8, 4, 4, 8, 6, 4, 7, 6, 6, 6, 6, 4, 8, 8, 8, 2, 2, 2, 4, 2, 1, 5, 4, 2, 8, 8, 7, 4, 2, 2, 6, 6, 6, 5, 4, 4, 4, 2, 2, 4, 3, 3, 6, 5, 5, 4, 3, 3, 9, 9, 9, 8, 8, 8, 8, 7, 7, 7, 6, 3, 8, 7, 6, 7, 6, 5, 7, 7, 7, 6, 6, 5, 8, 6, 2, 7, 6, 6, 10, 8, 6, 6, 5, 3, 10, 4, 3, 8, 5, 2, 7, 5, 4, 7, 6, 6, 9, 9, 9, 7, 5, 4, 9, 7, 7, 2, 2, 2, 3, 1, 1, 4, 3, 1, 10, 6, 5, 6, 4, 3, 4, 3, 3, 7, 5, 3, 4, 3, 3, 8, 7, 6, 4, 3, 3, 7, 7, 4, 9, 6, 6, 10, 7, 5, 8, 8, 8, 6, 4, 2, 8, 5, 2, 7, 6, 5, 9, 5, 2, 7, 6, 6, 3, 3, 1, 8, 8, 7, 7, 4, 3, 3, 3, 3, 6, 6, 4, 9, 8, 6, 4, 2, 1, 7, 7, 7, 9, 9, 8, 4, 3, 2, 7, 5, 3, 8, 6, 3, 8, 7, 3, 8, 5, 4, 8, 8, 7, 6, 4, 4
 |9, 6, 5, 9, 8, 7, 3, 2, 2, 5, 3, 3, 7, 4, 4, 9, 9, 8, 5, 4, 4, 8, 7, 7, 8, 8, 8, 5, 4, 4, 7, 4, 3, 4, 2, 1, 5, 4, 4, 8, 6, 6, 9, 9, 9, 6, 4, 4, 8, 7, 4, 10, 5, 3, 3, 3, 3, 4, 2, 1, 5, 4, 4, 3, 3, 3, 8, 8, 8, 8, 7, 6, 8, 5, 5, 5, 4, 4, 6, 6, 4, 5, 5, 1, 5, 3, 2, 8, 7, 6, 10, 8, 8, 8, 8, 8, 8, 6, 4, 9, 8, 7, 6, 6, 4, 8, 7, 7, 7, 3, 3, 10, 6, 5, 5, 5, 5, 9, 9, 7, 8, 8, 8, 8, 8, 7, 8, 5, 2, 6, 5, 3, 4, 4, 4, 7, 4, 3, 6, 3, 3, 6, 6, 5, 9, 5, 4, 5, 5, 5, 5, 3, 1, 10, 7, 4, 10, 7, 6, 9, 7, 3, 6, 4, 3, 5, 4, 3, 7, 5, 3, 5, 4, 3, 9, 7, 7, 9, 4, 3, 8, 6, 6, 8, 8, 8, 6, 6, 5, 4, 4, 1, 10, 7, 3, 10, 7, 4, 6, 6, 6, 8, 6, 6, 7, 7, 7, 8, 5, 2, 5, 3, 3, 5, 5, 4, 4, 4, 4, 5, 4, 2, 6, 6, 6, 6, 6, 2, 4, 4, 3, 8, 7, 5, 8, 5, 4, 8, 4, 3, 7, 6, 4, 10, 7, 4, 2, 2, 2, 10, 9, 8, 7, 6, 6, 9, 7, 6, 6, 5, 4, 3, 2, 2, 7, 7, 5, 10, 6, 4, 6, 5, 4, 8, 8, 8, 5, 3, 3, 9, 7, 6, 5, 5, 5, 9, 8, 6, 1, 1, 1, 9, 9, 9, 10, 6, 3, 7, 5, 3
 |3, 3, 2, 5, 2, 1, 2, 2, 2, 5, 5, 5, 9, 8, 7, 7, 7, 6, 6, 5, 4, 6, 3, 2, 5, 5, 5, 8, 6, 2, 6, 5, 5, 10, 4, 4, 6, 5, 4, 4, 4, 3, 6, 5, 4, 5, 4, 2, 5, 5, 5, 5, 4, 4, 10, 8, 8, 6, 5, 5, 1, 1, 1, 5, 3, 2, 6, 5, 4, 1, 1, 1, 4, 3, 3, 8, 7, 6, 7, 6, 5, 4, 3, 3, 7, 7, 7, 3, 2, 2, 8, 7, 6, 3, 2, 2, 9, 8, 8, 10, 10, 10, 7, 4, 1, 6, 3, 2, 8, 7, 6, 4, 3, 2, 6, 5, 5, 9, 7, 6, 8, 7, 6, 6, 6, 5, 8, 7, 4, 4, 4, 1, 5, 3, 3, 8, 5, 2, 9, 4, 2, 9, 9, 9, 7, 6, 5, 7, 6, 6, 9, 8, 6, 9, 8, 8, 8, 7, 6, 7, 6, 1, 3, 2, 2, 4, 2, 2, 7, 5, 2, 4, 3, 2, 7, 5, 5, 8, 3, 2, 4, 3, 2, 9, 8, 7, 7, 4, 2, 8, 7, 6, 7, 3, 1, 4, 4, 4, 10, 10, 9, 4, 2, 2, 10, 6, 6, 7, 5, 5, 2, 1, 1, 9, 7, 4, 4, 2, 1, 9, 9, 9, 4, 4, 3, 4, 3, 1, 8, 7, 5, 1, 1, 1, 7, 6, 6, 9, 5, 1, 9, 9, 7, 9, 7, 6, 4, 4, 4, 2, 2, 2, 6, 4, 4, 5, 3, 1, 9, 7, 7, 9, 9, 8, 6, 3, 3, 9, 4, 4, 7, 5, 4, 4, 2, 2, 6, 5, 5, 8, 5, 5, 3, 2, 2, 6, 4, 2, 9, 5, 4, 9, 7, 7, 10, 9, 9, 8, 5, 5|];